c Sudoku solution
p cnf 729 0
123 0
131 0
142 0
156 0
194 0
214 0
251 0
269 0
364 0
396 0
485 0
526 0
236 0
568 0
582 0
655 0
666 0
476 0
673 0
721 0
749 0
822 0
838 0
891 0
933 0
972 0
292 0
793 0
995 0
989 0
819 0
179 0
961 0
187 0
165 0
118 0
845 0
946 0
886 0
716 0
735 0
924 0
917 0
958 0
515 0
413 0
611 0
441 0
571 0
684 0
632 0
647 0
462 0
312 0
544 0
553 0
459 0
434 0
227 0
325 0
339 0
275 0
428 0
537 0
629 0
497 0
599 0
698 0
357 0
752 0
767 0
854 0
863 0
877 0
378 0
381 0
283 0
248 0
343 0
774 0
788 0
